p cnf 33 48
-16 3 0 
-24 9 12 0 
-30 2 6 0 
-5 17 0 
-14 9 0 
-28 4 0 
-3 25 0 
-26 1 0 
-21 2 0 
-10 20 0 
-19 9 0 
-10 33 0 
-12 24 0 
-33 2 10 0 
-25 3 0 
-32 11 0 
-11 32 0 
-11 13 0 
-13 11 0 
-8 22 0 
-29 9 0 
-8 31 0 
-17 5 0 
-9 14 0 
-2 33 0 
-7 18 0 
-2 21 0 
-2 30 0 
-27 5 0 
-4 28 0 
-15 5 12 0 
-5 20 0 
-22 8 0 
-2 18 0 
-20 5 10 0 
-23 4 0 
-5 27 0 
-12 15 0 
-4 23 0 
-9 19 0 
-1 26 0 
-3 16 0 
-9 29 0 
-18 2 7 0 
-31 8 0 
-6 30 0 
-5 15 0 
-9 24 0 
